0 273 38 87 294 206 174 285 262 326 79 230 105 267 152 284 132 14 283 108 310 41 0
0 282 42 97 169 115 196 228 131 298 208 142 56 224 34 209 140 141 295 84 112 272 71 127 0
0 67 254 125 337 19 286 252 24 299 248 165 260 288 170 313 119 348 195 328 182 290 243 0
0 162 118 187 4 128 188 5 338 207 151 246 347 233 325 292 202 203 98 270 109 0
0 346 20 205 216 255 268 81 6 36 340 231 176 238 61 199 93 281 123 35 240 311 0
